p cnf 237 632
1 2 -3 0
1 -2 3 0
-1 2 3 0
-1 -2 -3 0
4 5 6 0
4 -5 -6 0
-4 5 -6 0
-4 -5 6 0
7 8 9 0
7 -8 -9 0
-7 8 -9 0
-7 -8 9 0
10 11 -12 0
10 -11 12 0
-10 11 12 0
-10 -11 -12 0
13 14 15 0
13 -14 -15 0
-13 14 -15 0
-13 -14 15 0
16 17 -18 0
16 -17 18 0
-16 17 18 0
-16 -17 -18 0
19 20 21 0
19 -20 -21 0
-19 20 -21 0
-19 -20 21 0
22 23 -24 0
22 -23 24 0
-22 23 24 0
-22 -23 -24 0
25 26 -27 0
25 -26 27 0
-25 26 27 0
-25 -26 -27 0
28 29 30 0
28 -29 -30 0
-28 29 -30 0
-28 -29 30 0
31 32 -33 0
31 -32 33 0
-31 32 33 0
-31 -32 -33 0
13 34 35 0
13 -34 -35 0
-13 34 -35 0
-13 -34 35 0
36 37 -38 0
36 -37 38 0
-36 37 38 0
-36 -37 -38 0
39 40 -41 0
39 -40 41 0
-39 40 41 0
-39 -40 -41 0
42 43 44 0
42 -43 -44 0
-42 43 -44 0
-42 -43 44 0
4 45 -46 0
4 -45 46 0
-4 45 46 0
-4 -45 -46 0
47 48 49 0
47 -48 -49 0
-47 48 -49 0
-47 -48 49 0
22 50 -51 0
22 -50 51 0
-22 50 51 0
-22 -50 -51 0
52 53 -54 0
52 -53 54 0
-52 53 54 0
-52 -53 -54 0
55 56 57 0
55 -56 -57 0
-55 56 -57 0
-55 -56 57 0
45 58 -59 0
45 -58 59 0
-45 58 59 0
-45 -58 -59 0
60 61 62 0
60 -61 -62 0
-60 61 -62 0
-60 -61 62 0
63 64 65 0
63 -64 -65 0
-63 64 -65 0
-63 -64 65 0
31 46 -66 0
31 -46 66 0
-31 46 66 0
-31 -46 -66 0
19 67 68 0
19 -67 -68 0
-19 67 -68 0
-19 -67 68 0
69 70 -71 0
69 -70 71 0
-69 70 71 0
-69 -70 -71 0
47 72 73 0
47 -72 -73 0
-47 72 -73 0
-47 -72 73 0
74 75 -76 0
74 -75 76 0
-74 75 76 0
-74 -75 -76 0
32 77 78 0
32 -77 -78 0
-32 77 -78 0
-32 -77 78 0
7 50 -79 0
7 -50 79 0
-7 50 79 0
-7 -50 -79 0
80 81 82 0
80 -81 -82 0
-80 81 -82 0
-80 -81 82 0
83 84 85 0
83 -84 -85 0
-83 84 -85 0
-83 -84 85 0
14 86 -87 0
14 -86 87 0
-14 86 87 0
-14 -86 -87 0
88 89 -90 0
88 -89 90 0
-88 89 90 0
-88 -89 -90 0
91 92 93 0
91 -92 -93 0
-91 92 -93 0
-91 -92 93 0
94 95 -96 0
94 -95 96 0
-94 95 96 0
-94 -95 -96 0
97 98 -99 0
97 -98 99 0
-97 98 99 0
-97 -98 -99 0
100 101 -102 0
100 -101 102 0
-100 101 102 0
-100 -101 -102 0
10 103 104 0
10 -103 -104 0
-10 103 -104 0
-10 -103 104 0
16 105 106 0
16 -105 -106 0
-16 105 -106 0
-16 -105 106 0
107 108 109 0
107 -108 -109 0
-107 108 -109 0
-107 -108 109 0
80 110 -111 0
80 -110 111 0
-80 110 111 0
-80 -110 -111 0
112 113 -114 0
112 -113 114 0
-112 113 114 0
-112 -113 -114 0
23 34 -115 0
23 -34 115 0
-23 34 115 0
-23 -34 -115 0
72 83 116 0
72 -83 -116 0
-72 83 -116 0
-72 -83 116 0
112 117 -118 0
112 -117 118 0
-112 117 118 0
-112 -117 -118 0
77 119 120 0
77 -119 -120 0
-77 119 -120 0
-77 -119 120 0
20 103 121 0
20 -103 -121 0
-20 103 -121 0
-20 -103 121 0
1 52 122 0
1 -52 -122 0
-1 52 -122 0
-1 -52 122 0
8 123 124 0
8 -123 -124 0
-8 123 -124 0
-8 -123 124 0
97 125 126 0
97 -125 -126 0
-97 125 -126 0
-97 -125 126 0
127 128 129 0
127 -128 -129 0
-127 128 -129 0
-127 -128 129 0
48 55 -130 0
48 -55 130 0
-48 55 130 0
-48 -55 -130 0
2 127 131 0
2 -127 -131 0
-2 127 -131 0
-2 -127 131 0
132 133 -134 0
132 -133 134 0
-132 133 134 0
-132 -133 -134 0
63 132 135 0
63 -132 -135 0
-63 132 -135 0
-63 -132 135 0
78 136 137 0
78 -136 -137 0
-78 136 -137 0
-78 -136 137 0
11 138 -139 0
11 -138 139 0
-11 138 139 0
-11 -138 -139 0
105 131 -140 0
105 -131 140 0
-105 131 140 0
-105 -131 -140 0
119 141 -142 0
119 -141 142 0
-119 141 142 0
-119 -141 -142 0
74 107 143 0
74 -107 -143 0
-74 107 -143 0
-74 -107 143 0
86 100 -144 0
86 -100 144 0
-86 100 144 0
-86 -100 -144 0
33 94 145 0
33 -94 -145 0
-33 94 -145 0
-33 -94 145 0
75 146 147 0
75 -146 -147 0
-75 146 -147 0
-75 -146 147 0
56 101 148 0
56 -101 -148 0
-56 101 -148 0
-56 -101 148 0
149 150 -151 0
149 -150 151 0
-149 150 151 0
-149 -150 -151 0
28 152 153 0
28 -152 -153 0
-28 152 -153 0
-28 -152 153 0
154 155 -156 0
154 -155 156 0
-154 155 156 0
-154 -155 -156 0
157 158 159 0
157 -158 -159 0
-157 158 -159 0
-157 -158 159 0
60 160 -161 0
60 -160 161 0
-60 160 161 0
-60 -160 -161 0
58 162 163 0
58 -162 -163 0
-58 162 -163 0
-58 -162 163 0
57 164 165 0
57 -164 -165 0
-57 164 -165 0
-57 -164 165 0
166 167 168 0
166 -167 -168 0
-166 167 -168 0
-166 -167 168 0
9 64 169 0
9 -64 -169 0
-9 64 -169 0
-9 -64 169 0
110 170 -171 0
110 -170 171 0
-110 170 171 0
-110 -170 -171 0
81 84 138 0
81 -84 -138 0
-81 84 -138 0
-81 -84 138 0
152 172 -173 0
152 -172 173 0
-152 172 173 0
-152 -172 -173 0
174 175 -176 0
174 -175 176 0
-174 175 176 0
-174 -175 -176 0
139 146 -177 0
139 -146 177 0
-139 146 177 0
-139 -146 -177 0
178 179 -180 0
178 -179 180 0
-178 179 180 0
-178 -179 -180 0
39 181 -182 0
39 -181 182 0
-39 181 182 0
-39 -181 -182 0
88 111 183 0
88 -111 -183 0
-88 111 -183 0
-88 -111 183 0
36 98 184 0
36 -98 -184 0
-36 98 -184 0
-36 -98 184 0
5 172 -185 0
5 -172 185 0
-5 172 185 0
-5 -172 -185 0
42 157 -186 0
42 -157 186 0
-42 157 186 0
-42 -157 -186 0
61 187 -188 0
61 -187 188 0
-61 187 188 0
-61 -187 -188 0
43 133 170 0
43 -133 -170 0
-43 133 -170 0
-43 -133 170 0
91 189 -190 0
91 -189 190 0
-91 189 190 0
-91 -189 -190 0
191 192 193 0
191 -192 -193 0
-191 192 -193 0
-191 -192 193 0
53 191 -194 0
53 -191 194 0
-53 191 194 0
-53 -191 -194 0
136 184 195 0
136 -184 -195 0
-136 184 -195 0
-136 -184 195 0
154 160 186 0
154 -160 -186 0
-154 160 -186 0
-154 -160 186 0
196 197 -198 0
196 -197 198 0
-196 197 198 0
-196 -197 -198 0
37 158 -199 0
37 -158 199 0
-37 158 199 0
-37 -158 -199 0
166 200 -201 0
166 -200 201 0
-166 200 201 0
-166 -200 -201 0
137 155 167 0
137 -155 -167 0
-137 155 -167 0
-137 -155 167 0
44 202 -203 0
44 -202 203 0
-44 202 203 0
-44 -202 -203 0
59 95 -156 0
59 -95 156 0
-59 95 156 0
-59 -95 -156 0
104 128 153 0
104 -128 -153 0
-104 128 -153 0
-104 -128 153 0
174 204 -205 0
174 -204 205 0
-174 204 205 0
-174 -204 -205 0
115 159 -206 0
115 -159 206 0
-115 159 206 0
-115 -159 -206 0
178 181 207 0
178 -181 -207 0
-178 181 -207 0
-178 -181 207 0
141 199 -208 0
141 -199 208 0
-141 199 208 0
-141 -199 -208 0
162 182 -209 0
162 -182 209 0
-162 182 209 0
-162 -182 -209 0
123 210 -211 0
123 -210 211 0
-123 210 211 0
-123 -210 -211 0
169 208 -212 0
169 -208 212 0
-169 208 212 0
-169 -208 -212 0
194 213 -214 0
194 -213 214 0
-194 213 214 0
-194 -213 -214 0
15 87 -117 0
15 -87 117 0
-15 87 117 0
-15 -87 -117 0
6 25 -29 0
6 -25 29 0
-6 25 29 0
-6 -25 -29 0
24 92 -108 0
24 -92 108 0
-24 92 108 0
-24 -92 -108 0
26 179 215 0
26 -179 -215 0
-26 179 -215 0
-26 -179 215 0
89 202 216 0
89 -202 -216 0
-89 202 -216 0
-89 -202 216 0
121 217 218 0
121 -217 -218 0
-121 217 -218 0
-121 -217 218 0
102 215 219 0
102 -215 -219 0
-102 215 -219 0
-102 -215 219 0
113 147 220 0
113 -147 -220 0
-113 147 -220 0
-113 -147 220 0
90 171 -221 0
90 -171 221 0
-90 171 221 0
-90 -171 -221 0
69 120 -200 0
69 -120 200 0
-69 120 200 0
-69 -120 -200 0
21 222 -223 0
21 -222 223 0
-21 222 223 0
-21 -222 -223 0
65 210 -224 0
65 -210 224 0
-65 210 224 0
-65 -210 -224 0
143 173 -189 0
143 -173 189 0
-143 173 189 0
-143 -173 -189 0
73 177 225 0
73 -177 -225 0
-73 177 -225 0
-73 -177 225 0
99 135 -204 0
99 -135 204 0
-99 135 204 0
-99 -135 -204 0
40 129 226 0
40 -129 -226 0
-40 129 -226 0
-40 -129 226 0
149 187 227 0
149 -187 -227 0
-149 187 -227 0
-149 -187 227 0
85 96 205 0
85 -96 -205 0
-85 96 -205 0
-85 -96 205 0
195 206 -211 0
195 -206 211 0
-195 206 211 0
-195 -206 -211 0
150 217 228 0
150 -217 -228 0
-150 217 -228 0
-150 -217 228 0
144 229 230 0
144 -229 -230 0
-144 229 -230 0
-144 -229 230 0
145 221 -231 0
145 -221 231 0
-145 221 231 0
-145 -221 -231 0
192 218 -232 0
192 -218 232 0
-192 218 232 0
-192 -218 -232 0
212 229 -233 0
212 -229 233 0
-212 229 233 0
-212 -229 -233 0
130 201 -216 0
130 -201 216 0
-130 201 216 0
-130 -201 -216 0
106 148 234 0
106 -148 -234 0
-106 148 -234 0
-106 -148 234 0
27 140 -207 0
27 -140 207 0
-27 140 207 0
-27 -140 -207 0
70 188 -196 0
70 -188 196 0
-70 188 196 0
-70 -188 -196 0
124 180 235 0
124 -180 -235 0
-124 180 -235 0
-124 -180 235 0
54 175 213 0
54 -175 -213 0
-54 175 -213 0
-54 -175 213 0
12 93 -183 0
12 -93 183 0
-12 93 183 0
-12 -93 -183 0
66 214 -222 0
66 -214 222 0
-66 214 222 0
-66 -214 -222 0
17 203 223 0
17 -203 -223 0
-17 203 -223 0
-17 -203 223 0
79 118 -176 0
79 -118 176 0
-79 118 176 0
-79 -118 -176 0
209 220 236 0
209 -220 -236 0
-209 220 -236 0
-209 -220 236 0
164 225 232 0
164 -225 -232 0
-164 225 -232 0
-164 -225 232 0
18 30 226 0
18 -30 -226 0
-18 30 -226 0
-18 -30 226 0
51 71 -193 0
51 -71 193 0
-51 71 193 0
-51 -71 -193 0
3 125 -233 0
3 -125 233 0
-3 125 233 0
-3 -125 -233 0
76 82 -126 0
76 -82 126 0
-76 82 126 0
-76 -82 -126 0
62 142 -161 0
62 -142 161 0
-62 142 161 0
-62 -142 -161 0
230 235 237 0
230 -235 -237 0
-230 235 -237 0
-230 -235 237 0
151 219 228 0
151 -219 -228 0
-151 219 -228 0
-151 -219 228 0
67 109 -197 0
67 -109 197 0
-67 109 197 0
-67 -109 -197 0
49 231 234 0
49 -231 -234 0
-49 231 -234 0
-49 -231 234 0
116 190 237 0
116 -190 -237 0
-116 190 -237 0
-116 -190 237 0
35 227 236 0
35 -227 -236 0
-35 227 -236 0
-35 -227 236 0
38 68 -198 0
38 -68 198 0
-38 68 198 0
-38 -68 -198 0
134 168 224 0
134 -168 -224 0
-134 168 -224 0
-134 -168 224 0
114 122 163 0
114 -122 -163 0
-114 122 -163 0
-114 -122 163 0
41 165 -185 0
41 -165 185 0
-41 165 185 0
-41 -165 -185 0
